Cost: 1176
0-56-32-54-28-27-26-29-52-30-53-31-62-24-23-22-59-25-63-55-33-0
0-38-34-57-58-4-39-7-36-8-41-9-10-60-15-16-17-18-64-61-1-37-0
Cost: 1176
0-38-34-57-58-4-39-7-36-8-41-9-10-60-15-16-17-18-64-61-1-37-0
0-56-32-54-28-27-26-63-52-30-53-31-62-24-23-22-59-25-29-55-33-0
Cost: 1176
0-38-34-57-58-4-39-7-36-8-41-9-10-60-15-16-17-18-64-61-1-37-0
0-56-32-54-28-27-26-52-30-53-31-62-24-23-22-59-25-63-29-55-33-0
Cost: 1176
0-56-32-54-28-27-26-63-29-30-53-31-62-52-24-23-22-59-25-55-33-0
0-38-34-57-58-4-39-7-36-8-41-9-10-60-15-16-17-18-64-61-1-37-0
Cost: 1176
0-38-34-57-58-4-39-7-36-8-41-9-10-60-15-16-17-18-64-61-1-37-0
0-32-54-28-27-26-63-30-53-31-62-52-24-23-22-59-25-29-55-33-56-0
Cost: 1176
0-38-34-57-58-4-39-7-36-8-41-9-10-60-15-16-17-18-64-61-1-37-0
0-32-54-28-27-26-29-30-53-31-62-52-24-23-22-59-25-63-55-33-56-0
Cost: 1176
0-38-34-57-58-4-39-7-36-8-41-9-10-60-15-16-17-18-64-61-1-37-0
0-56-32-54-28-27-26-30-53-31-62-52-24-23-22-59-25-63-29-55-33-0
Cost: 1176
0-38-34-57-58-4-39-7-36-8-41-9-10-60-15-16-17-18-64-61-1-37-0
0-56-32-54-28-27-26-63-52-30-53-31-62-24-23-22-59-25-29-55-33-0
Cost: 1176
0-38-34-57-58-4-39-7-36-8-41-9-10-60-15-16-17-18-64-61-1-37-0
0-56-32-54-28-27-26-63-52-30-53-31-62-24-23-22-59-25-29-55-33-0
Cost: 1176
0-32-54-28-27-26-29-30-53-31-62-52-24-23-22-59-25-63-55-33-56-0
0-38-34-57-58-4-39-7-36-8-41-9-10-60-15-16-17-18-64-61-1-37-0
Cost: 1176
0-56-32-54-28-27-26-30-53-31-62-52-24-23-22-59-25-63-29-55-33-0
0-38-34-57-58-39-5-7-36-8-41-9-10-60-15-16-17-18-64-61-1-37-0
Cost: 1176
0-56-32-54-28-27-26-63-30-53-31-62-52-24-23-22-59-25-29-55-33-0
0-38-34-57-58-39-5-7-36-8-41-9-10-60-15-16-17-18-64-61-1-37-0
Cost: 1176
0-38-34-57-58-4-39-7-36-8-41-9-10-60-15-16-17-18-64-61-1-37-0
0-56-32-54-28-27-26-63-29-52-30-53-31-62-24-23-22-59-25-55-33-0
Cost: 1176
0-38-34-57-58-4-39-7-36-8-41-9-10-60-15-16-17-18-64-61-1-37-0
0-32-54-28-27-26-63-29-30-53-31-62-52-24-23-22-59-25-55-33-56-0
Cost: 1176
0-56-32-54-28-27-26-30-53-31-62-52-24-23-22-59-25-63-29-55-33-0
0-38-34-57-58-39-5-7-36-8-41-9-10-60-15-16-17-18-64-61-1-37-0
Cost: 1176
0-56-32-54-28-27-26-30-53-31-62-52-24-23-22-59-25-63-29-55-33-0
0-38-34-57-58-39-5-7-36-8-41-9-10-60-15-16-17-18-64-61-1-37-0
Cost: 1176
0-56-32-54-28-27-26-30-53-31-62-52-24-23-22-59-25-63-29-55-33-0
0-38-34-57-58-39-5-7-36-8-41-9-10-60-15-16-17-18-64-61-1-37-0
Cost: 1176
0-56-32-54-28-27-26-30-53-31-62-52-24-23-22-59-25-63-29-55-33-0
0-38-34-57-58-39-5-7-36-8-41-9-10-60-15-16-17-18-64-61-1-37-0
Cost: 1176
0-38-34-57-58-4-39-7-36-8-41-9-10-60-15-16-17-18-64-61-1-37-0
0-56-32-54-28-27-26-63-30-53-31-62-52-24-23-22-59-25-29-55-33-0
Cost: 1176
0-38-34-57-58-39-5-7-36-8-41-9-10-60-15-16-17-18-64-61-1-37-0
0-56-32-54-28-27-26-63-52-30-53-31-62-24-23-22-59-25-29-55-33-0
Cost: 1176
0-56-32-54-28-27-26-63-29-52-30-53-31-62-24-23-22-59-25-55-33-0
0-38-34-57-58-4-39-7-36-8-41-9-10-60-15-16-17-18-64-61-1-37-0
Cost: 1176
0-56-32-54-28-27-26-63-29-52-30-53-31-62-24-23-22-59-25-55-33-0
0-38-34-57-58-4-39-7-36-8-41-9-10-60-15-16-17-18-64-61-1-37-0
Cost: 1176
0-38-34-57-58-4-39-7-36-8-41-9-10-60-15-16-17-18-64-61-1-37-0
0-56-32-54-28-27-26-63-30-53-31-62-52-24-23-22-59-25-29-55-33-0
Cost: 1176
0-38-34-57-58-4-39-7-36-8-41-9-10-60-15-16-17-18-64-61-1-37-0
0-56-32-54-28-27-26-63-30-53-31-62-52-24-23-22-59-25-29-55-33-0
Cost: 1176
0-38-34-57-58-4-39-7-36-8-41-9-10-60-15-16-17-18-64-61-1-37-0
0-56-32-54-28-27-26-63-30-53-31-62-52-24-23-22-59-25-29-55-33-0
Cost: 1176
0-38-34-57-58-4-39-7-36-8-41-9-10-60-15-16-17-18-64-61-1-37-0
0-56-32-54-28-27-26-63-30-53-31-62-52-24-23-22-59-25-29-55-33-0
Cost: 1176
0-38-34-57-58-39-5-7-36-8-41-9-10-60-15-16-17-18-64-61-1-37-0
0-56-32-54-28-27-26-63-52-30-53-31-62-24-23-22-59-25-29-55-33-0
Cost: 1176
0-56-32-54-28-27-26-63-29-52-30-53-31-62-24-23-22-59-25-55-33-0
0-38-34-57-58-4-39-7-36-8-41-9-10-60-15-16-17-18-64-61-1-37-0
Cost: 1176
0-56-32-54-28-27-26-63-29-52-30-53-31-62-24-23-22-59-25-55-33-0
0-38-34-57-58-4-39-7-36-8-41-9-10-60-15-16-17-18-64-61-1-37-0
Cost: 1176
0-56-32-54-28-27-26-29-52-30-53-31-62-24-23-22-59-25-63-55-33-0
0-38-34-57-58-39-5-7-36-8-41-9-10-60-15-16-17-18-64-61-1-37-0
Cost: 1182
0-38-34-57-58-4-39-7-36-8-41-9-10-60-15-16-17-18-64-61-1-37-0
0-56-32-54-28-27-26-22-59-23-24-25-63-29-55-31-62-52-30-53-33-0
Cost: 1176
0-38-34-57-58-39-5-7-36-8-41-9-10-60-15-16-17-18-64-61-1-37-0
0-56-32-54-28-27-26-52-30-53-31-62-24-23-22-59-25-63-29-55-33-0
Cost: 1176
0-38-34-57-58-4-39-7-36-8-41-9-10-60-15-16-17-18-64-61-1-37-0
0-32-54-28-27-26-63-52-30-53-31-62-24-23-22-59-25-29-55-33-56-0
Cost: 1176
0-38-34-57-58-4-39-7-36-8-41-9-10-60-15-16-17-18-64-61-1-37-0
0-56-32-54-28-27-26-63-30-53-31-62-52-24-23-22-59-25-29-55-33-0
